c CNF file generated from BLIF2CNF script.
c Original BLIF file was -
p cnf 17 30
1 -4 0
2 -4 0
4 -1 -2  0
-4 -3 0
3 4  0
5 -7 0
1 -7 0
7 -5 -1  0
-7 -6 0
6 7  0
3 -10 0
8 -10 0
10 -3 -8  0
-10 -9 0
9 10  0
11 -13 0
3 -13 0
13 -11 -3  0
-13 -12 0
12 13  0
12 -15 0
9 -15 0
15 -12 -9  0
-15 -14 0
14 15  0
6 -17 0
12 -17 0
17 -6 -12  0
-17 -16 0
16 17  0
